solution status: optimal solution found
objective value:                                    0
$_69_y                                             15 	(obj:0)
$_69_z                                             12 	(obj:0)
$_151_y                                            15 	(obj:0)
$_151_z                                            16 	(obj:0)
$_51_y                                             16 	(obj:0)
$_51_z                                             14 	(obj:0)
$_49_y                                             16 	(obj:0)
$_49_z                                             15 	(obj:0)
$_62_y                                             15 	(obj:0)
$_62_z                                             14 	(obj:0)
$_45_y                                             14 	(obj:0)
$_45_z                                             16 	(obj:0)
